\ENCODING=ISO-8859-1
\Problem name: IloCplex

Minimize
 obj1: X(0)#9 + X(1)#19 + X(2)#29
Subject To
 c1:   X(0)#0 <= 0
 c2:   X(0)#1 <= 0
 c3:   X(0)#2 <= 0
 c4:   X(0)#3 <= 130
 c5:   X(0)#4 <= 115
 c6:   X(0)#5 <= 0
 c7:   X(0)#6 <= 0
 c8:   X(0)#7 <= 0
 c9:   X(0)#8 <= 0
 c10:  X(0)#9 <= 245
 c11:  X(0)#1 + X(0)#2 + X(0)#3 + X(0)#4 + X(0)#5 + X(0)#6 + X(0)#7 + X(0)#8
       + X(0)#9 - X(1)#10 - X(2)#20 - X(3)#30 - X(4)#40 - X(5)#50 - X(6)#60
       - X(7)#70 - X(8)#80 - X(9)#90  = 245
 c12:  X(1)#10 <= 0
 c13:  X(1)#11 <= 0
 c14:  X(1)#12 <= 0
 c15:  X(1)#13 <= 70
 c16:  X(1)#14 <= 90
 c17:  X(1)#15 <= 110
 c18:  X(1)#16 <= 0
 c19:  X(1)#17 <= 0
 c20:  X(1)#18 <= 0
 c21:  X(1)#19 <= 270
 c22:  - X(0)#1 + X(1)#10 + X(1)#12 + X(1)#13 + X(1)#14 + X(1)#15 + X(1)#16
       + X(1)#17 + X(1)#18 + X(1)#19 - X(2)#21 - X(3)#31 - X(4)#41 - X(5)#51
       - X(6)#61 - X(7)#71 - X(8)#81 - X(9)#91  = 270
 c23:  X(2)#20 <= 0
 c24:  X(2)#21 <= 0
 c25:  X(2)#22 <= 0
 c26:  X(2)#23 <= 0
 c27:  X(2)#24 <= 140
 c28:  X(2)#25 <= 120
 c29:  X(2)#26 <= 0
 c30:  X(2)#27 <= 0
 c31:  X(2)#28 <= 0
 c32:  X(2)#29 <= 260
 c33:  - X(0)#2 - X(1)#12 + X(2)#20 + X(2)#21 + X(2)#23 + X(2)#24 + X(2)#25
       + X(2)#26 + X(2)#27 + X(2)#28 + X(2)#29 - X(3)#32 - X(4)#42 - X(5)#52
       - X(6)#62 - X(7)#72 - X(8)#82 - X(9)#92  = 260
 c34:  X(3)#30 <= 0
 c35:  X(3)#31 <= 0
 c36:  X(3)#32 <= 0
 c37:  X(3)#33 <= 0
 c38:  X(3)#34 <= 0
 c39:  X(3)#35 <= 0
 c40:  X(3)#36 <= 110
 c41:  X(3)#37 <= 85
 c42:  X(3)#38 <= 0
 c43:  X(3)#39 <= 0
 c44:  - X(0)#3 - X(1)#13 - X(2)#23 + X(3)#30 + X(3)#31 + X(3)#32 + X(3)#34
       + X(3)#35 + X(3)#36 + X(3)#37 + X(3)#38 + X(3)#39 - X(4)#43 - X(5)#53
       - X(6)#63 - X(7)#73 - X(8)#83 - X(9)#93  = 0
 c45:  X(4)#40 <= 0
 c46:  X(4)#41 <= 0
 c47:  X(4)#42 <= 0
 c48:  X(4)#43 <= 0
 c49:  X(4)#44 <= 0
 c50:  X(4)#45 <= 0
 c51:  X(4)#46 <= 130
 c52:  X(4)#47 <= 95
 c53:  X(4)#48 <= 85
 c54:  X(4)#49 <= 0
 c55:  - X(0)#4 - X(1)#14 - X(2)#24 - X(3)#34 + X(4)#40 + X(4)#41 + X(4)#42
       + X(4)#43 + X(4)#45 + X(4)#46 + X(4)#47 + X(4)#48 + X(4)#49 - X(5)#54
       - X(6)#64 - X(7)#74 - X(8)#84 - X(9)#94  = 0
 c56:  X(5)#50 <= 0
 c57:  X(5)#51 <= 0
 c58:  X(5)#52 <= 0
 c59:  X(5)#53 <= 0
 c60:  X(5)#54 <= 0
 c61:  X(5)#55 <= 0
 c62:  X(5)#56 <= 0
 c63:  X(5)#57 <= 130
 c64:  X(5)#58 <= 160
 c65:  X(5)#59 <= 0
 c66:  - X(0)#5 - X(1)#15 - X(2)#25 - X(3)#35 - X(4)#45 + X(5)#50 + X(5)#51
       + X(5)#52 + X(5)#53 + X(5)#54 + X(5)#56 + X(5)#57 + X(5)#58 + X(5)#59
       - X(6)#65 - X(7)#75 - X(8)#85 - X(9)#95  = 0
 c67:  X(6)#60 <= 0
 c68:  X(6)#61 <= 0
 c69:  X(6)#62 <= 0
 c70:  X(6)#63 <= 0
 c71:  X(6)#64 <= 0
 c72:  X(6)#65 <= 0
 c73:  X(6)#66 <= 0
 c74:  X(6)#67 <= 0
 c75:  X(6)#68 <= 0
 c76:  X(6)#69 <= 220
 c77:  - X(0)#6 - X(1)#16 - X(2)#26 - X(3)#36 - X(4)#46 - X(5)#56 + X(6)#60
       + X(6)#61 + X(6)#62 + X(6)#63 + X(6)#64 + X(6)#65 + X(6)#67 + X(6)#68
       + X(6)#69 - X(7)#76 - X(8)#86 - X(9)#96  = 0
 c78:  X(7)#70 <= 0
 c79:  X(7)#71 <= 0
 c80:  X(7)#72 <= 0
 c81:  X(7)#73 <= 0
 c82:  X(7)#74 <= 0
 c83:  X(7)#75 <= 0
 c84:  X(7)#76 <= 0
 c85:  X(7)#77 <= 0
 c86:  X(7)#78 <= 0
 c87:  X(7)#79 <= 330
 c88:  - X(0)#7 - X(1)#17 - X(2)#27 - X(3)#37 - X(4)#47 - X(5)#57 - X(6)#67
       + X(7)#70 + X(7)#71 + X(7)#72 + X(7)#73 + X(7)#74 + X(7)#75 + X(7)#76
       + X(7)#78 + X(7)#79 - X(8)#87 - X(9)#97  = 0
 c89:  X(8)#80 <= 0
 c90:  X(8)#81 <= 0
 c91:  X(8)#82 <= 0
 c92:  X(8)#83 <= 0
 c93:  X(8)#84 <= 0
 c94:  X(8)#85 <= 0
 c95:  X(8)#86 <= 0
 c96:  X(8)#87 <= 0
 c97:  X(8)#88 <= 0
 c98:  X(8)#89 <= 240
 c99:  - X(0)#8 - X(1)#18 - X(2)#28 - X(3)#38 - X(4)#48 - X(5)#58 - X(6)#68
       - X(7)#78 + X(8)#80 + X(8)#81 + X(8)#82 + X(8)#83 + X(8)#84 + X(8)#85
       + X(8)#86 + X(8)#87 + X(8)#89 - X(9)#98  = 0
 c100: X(9)#90 <= 0
 c101: X(9)#91 <= 0
 c102: X(9)#92 <= 0
 c103: X(9)#93 <= 0
 c104: X(9)#94 <= 0
 c105: X(9)#95 <= 0
 c106: X(9)#96 <= 0
 c107: X(9)#97 <= 0
 c108: X(9)#98 <= 0
 c109: X(9)#99 <= 0
 c110: - X(0)#9 - X(1)#19 - X(2)#29 - X(3)#39 - X(4)#49 - X(5)#59 - X(6)#69
       - X(7)#79 - X(8)#89 + X(9)#90 + X(9)#91 + X(9)#92 + X(9)#93 + X(9)#94
       + X(9)#95 + X(9)#96 + X(9)#97 + X(9)#98  = -775
End
